(set-info :source |printed by MathSAT|)
(declare-fun main@%tmp11.i_0_3 () Int)
(declare-fun .y.17 () Int)
(declare-fun .y.13 () Int)
(declare-fun .y.18 () Int)
(declare-fun .y.14 () Int)
(declare-fun .y.19 () Int)
(declare-fun main@%shadow.mem2.0_0_3 () (Array Int Int))
(declare-fun .y.20 () (Array Int Int))
(declare-fun main@%tmp14.i_0_3 () Int)
(declare-fun .y.21 () Int)
(declare-fun main@%shadow.mem.0_0_3 () (Array Int Int))
(declare-fun .y.22 () (Array Int Int))
(declare-fun main@%tmp17.i_0_3 () Int)
(declare-fun .y.23 () Int)
(declare-fun main@%shadow.mem1.0_0_3 () (Array Int Int))
(declare-fun .y.24 () (Array Int Int))
(declare-fun main@%x.0.i_0_1 () Int)
(declare-fun .y.25 () Int)
(declare-fun main@%tmp2.i_0_3 () Int)
(declare-fun .y.26 () Int)
(declare-fun .loc.15 () Bool)
(declare-fun .loc.27 () Bool)
(declare-fun .loc.16 () Bool)
(declare-fun .loc.28 () Bool)
(declare-fun main@%tmp60.i_0_0 () Int)
(declare-fun main@%tmp52.i_0_0 () Int)
(declare-fun main@%tmp38.i_0 () Int)
(declare-fun main@%tmp41.i_0 () Int)
(declare-fun main@%tmp63.i_0_0 () Int)
(declare-fun main@%tmp56.i_0_0 () Int)
(define-fun .def_8 () Int (! main@%tmp11.i_0_3 :next |.y.17|))
(define-fun .def_10 () Int (! .y.13 :next |.y.18|))
(define-fun .def_12 () Int (! .y.14 :next |.y.19|))
(define-fun .def_14 () (Array Int Int) (! main@%shadow.mem2.0_0_3 :next |.y.20|))
(define-fun .def_16 () Int (! main@%tmp14.i_0_3 :next |.y.21|))
(define-fun .def_18 () (Array Int Int) (! main@%shadow.mem.0_0_3 :next |.y.22|))
(define-fun .def_20 () Int (! main@%tmp17.i_0_3 :next |.y.23|))
(define-fun .def_22 () (Array Int Int) (! main@%shadow.mem1.0_0_3 :next |.y.24|))
(define-fun .def_24 () Int (! main@%x.0.i_0_1 :next |.y.25|))
(define-fun .def_26 () Int (! main@%tmp2.i_0_3 :next |.y.26|))
(define-fun .def_28 () Bool (! .loc.15 :next |.loc.27|))
(define-fun .def_30 () Bool (! .loc.16 :next |.loc.28|))
(define-fun .def_55 () Int (! main@%tmp60.i_0_0 :next |.xtv.1|))
(define-fun .def_56 () Int (! main@%tmp52.i_0_0 :next |.xtv.2|))
(define-fun .def_60 () Int (! main@%tmp38.i_0 :next |.xtv.3|))
(define-fun .def_61 () Int (! main@%tmp41.i_0 :next |.xtv.4|))
(define-fun .def_65 () Int (! main@%tmp63.i_0_0 :next |.xtv.5|))
(define-fun .def_66 () Int (! main@%tmp56.i_0_0 :next |.xtv.6|))
(define-fun .def_132 () Bool (not .def_28))
(define-fun .def_40 () Bool (not .def_30))
(define-fun .def_248 () Bool (! (and .def_40 .def_132) :init true))
(define-fun .def_190 () Int (select .def_14 .def_66))
(define-fun .def_191 () Int (* (- 1) .def_190))
(define-fun .def_189 () Int (select .def_18 .def_55))
(define-fun .def_192 () Int (+ .def_189 .def_191))
(define-fun .def_237 () Int (+ .def_65 .def_192))
(define-fun .def_238 () Bool (= .def_237 0))
(define-fun .def_193 () Int (select .def_22 .def_56))
(define-fun .def_234 () Bool (= .def_65 .def_193))
(define-fun .def_235 () Bool (not .def_234))
(define-fun .def_228 () Int (* 16777216 .def_26))
(define-fun .def_229 () Real (* (/ 1 16777216) (to_real .def_228)))
(define-fun .def_230 () Int (to_int .def_229))
(define-fun .def_231 () Bool (<= .def_230 .def_24))
(define-fun .def_232 () Bool (not .def_231))
(define-fun .def_172 () Bool (<= .def_55 0))
(define-fun .def_173 () Bool (not .def_172))
(define-fun .def_33 () Bool (<= .def_16 0))
(define-fun .def_174 () Bool (or .def_33 .def_173))
(define-fun .def_83 () Int (* (- 1) .def_55))
(define-fun .def_168 () Int (+ .def_24 .def_83))
(define-fun .def_169 () Int (+ .def_16 .def_168))
(define-fun .def_170 () Bool (= .def_169 0))
(define-fun .def_161 () Bool (<= .def_8 0))
(define-fun .def_164 () Bool (not .def_161))
(define-fun .def_92 () Bool (<= .def_66 0))
(define-fun .def_93 () Bool (not .def_92))
(define-fun .def_162 () Bool (or .def_93 .def_161))
(define-fun .def_99 () Int (* (- 1) .def_66))
(define-fun .def_157 () Int (+ .def_24 .def_99))
(define-fun .def_158 () Int (+ .def_8 .def_157))
(define-fun .def_159 () Bool (= .def_158 0))
(define-fun .def_114 () Int (* (- 1) .def_56))
(define-fun .def_152 () Int (+ .def_24 .def_114))
(define-fun .def_153 () Int (+ .def_20 .def_152))
(define-fun .def_154 () Bool (= .def_153 0))
(define-fun .def_107 () Bool (<= .def_56 0))
(define-fun .def_108 () Bool (not .def_107))
(define-fun .def_35 () Bool (<= .def_20 0))
(define-fun .def_151 () Bool (or .def_35 .def_108))
(define-fun .def_155 () Bool (and .def_151 .def_154))
(define-fun .def_36 () Bool (not .def_35))
(define-fun .def_156 () Bool (and .def_36 .def_155))
(define-fun .def_160 () Bool (and .def_156 .def_159))
(define-fun .def_163 () Bool (and .def_160 .def_162))
(define-fun .def_165 () Bool (and .def_163 .def_164))
(define-fun .def_171 () Bool (and .def_165 .def_170))
(define-fun .def_175 () Bool (and .def_171 .def_174))
(define-fun .def_34 () Bool (not .def_33))
(define-fun .def_176 () Bool (and .def_34 .def_175))
(define-fun .def_233 () Bool (and .def_176 .def_232))
(define-fun .def_236 () Bool (and .def_233 .def_235))
(define-fun .def_239 () Bool (and .def_236 .def_238))
(define-fun .def_240 () Bool (and .def_30 .def_239))
(define-fun .def_241 () Bool (and .def_132 .def_240))
(define-fun .def_242 () Bool (and .loc.27 .def_241))
(define-fun .def_225 () Bool (= .def_24 .y.26))
(define-fun .def_218 () Bool (= .y.17 .def_10))
(define-fun .def_215 () Bool (= .y.25 0))
(define-fun .def_179 () Bool (not .loc.27))
(define-fun .def_213 () Bool (and .def_28 .def_179))
(define-fun .def_214 () Bool (and .def_40 .def_213))
(define-fun .def_216 () Bool (and .def_214 .def_215))
(define-fun .def_120 () Int (* (- 16777216) .def_24))
(define-fun .def_121 () Int (* (- 1) .def_120))
(define-fun .def_123 () Real (* (/ 1 16777216) (to_real .def_121)))
(define-fun .def_124 () Int (to_int .def_123))
(define-fun .def_125 () Bool (<= .def_124 .def_12))
(define-fun .def_217 () Bool (and .def_125 .def_216))
(define-fun .def_219 () Bool (and .def_217 .def_218))
(define-fun .def_181 () Bool (= .def_14 .y.20))
(define-fun .def_220 () Bool (and .def_181 .def_219))
(define-fun .def_42 () Bool (= .def_16 .y.21))
(define-fun .def_221 () Bool (and .def_42 .def_220))
(define-fun .def_184 () Bool (= .def_18 .y.22))
(define-fun .def_222 () Bool (and .def_184 .def_221))
(define-fun .def_44 () Bool (= .def_20 .y.23))
(define-fun .def_223 () Bool (and .def_44 .def_222))
(define-fun .def_187 () Bool (= .def_22 .y.24))
(define-fun .def_224 () Bool (and .def_187 .def_223))
(define-fun .def_226 () Bool (and .def_224 .def_225))
(define-fun .def_243 () Bool (or .def_226 .def_242))
(define-fun .def_211 () Bool (= .def_26 .y.26))
(define-fun .def_203 () Int (* (- 16777216) .def_26))
(define-fun .def_204 () Int (* (- 1) .def_203))
(define-fun .def_205 () Real (* (/ 1 16777216) (to_real .def_204)))
(define-fun .def_206 () Int (to_int .def_205))
(define-fun .def_207 () Bool (<= .def_206 .def_24))
(define-fun .def_208 () Bool (not .def_207))
(define-fun .def_199 () Int (* (- 1) .y.25))
(define-fun .def_200 () Int (+ .def_24 .def_199))
(define-fun .def_201 () Bool (= .def_200 (- 1)))
(define-fun .def_195 () Int (+ .def_191 .def_193))
(define-fun .def_196 () Int (+ .def_189 .def_195))
(define-fun .def_197 () Bool (= .def_196 0))
(define-fun .def_177 () Bool (and .def_30 .def_176))
(define-fun .def_178 () Bool (and .def_132 .def_177))
(define-fun .def_180 () Bool (and .def_178 .def_179))
(define-fun .def_182 () Bool (and .def_180 .def_181))
(define-fun .def_183 () Bool (and .def_42 .def_182))
(define-fun .def_185 () Bool (and .def_183 .def_184))
(define-fun .def_186 () Bool (and .def_44 .def_185))
(define-fun .def_188 () Bool (and .def_186 .def_187))
(define-fun .def_198 () Bool (and .def_188 .def_197))
(define-fun .def_202 () Bool (and .def_198 .def_201))
(define-fun .def_209 () Bool (and .def_202 .def_208))
(define-fun .def_46 () Bool (= .def_8 .y.17))
(define-fun .def_210 () Bool (and .def_46 .def_209))
(define-fun .def_212 () Bool (and .def_210 .def_211))
(define-fun .def_244 () Bool (or .def_212 .def_243))
(define-fun .def_245 () Bool (and .loc.28 .def_244))
(define-fun .def_148 () Bool (<= .y.25 0))
(define-fun .def_149 () Bool (not .def_148))
(define-fun .def_145 () Bool (<= .y.18 0))
(define-fun .def_146 () Bool (not .def_145))
(define-fun .def_142 () Bool (<= .y.21 0))
(define-fun .def_143 () Bool (not .def_142))
(define-fun .def_139 () Bool (<= .y.23 0))
(define-fun .def_140 () Bool (not .def_139))
(define-fun .def_137 () Bool (= .y.19 0))
(define-fun .def_133 () Bool (and .loc.27 .def_132))
(define-fun .def_134 () Bool (and .def_40 .def_133))
(define-fun .def_135 () Bool (and .def_46 .def_134))
(define-fun .def_48 () Bool (not .loc.28))
(define-fun .def_136 () Bool (and .def_48 .def_135))
(define-fun .def_138 () Bool (and .def_136 .def_137))
(define-fun .def_141 () Bool (and .def_138 .def_140))
(define-fun .def_144 () Bool (and .def_141 .def_143))
(define-fun .def_147 () Bool (and .def_144 .def_146))
(define-fun .def_150 () Bool (and .def_147 .def_149))
(define-fun .def_246 () Bool (or .def_150 .def_245))
(define-fun .def_130 () Bool (= .def_24 .y.25))
(define-fun .def_128 () Bool (= .def_10 .y.18))
(define-fun .def_126 () Bool (not .def_125))
(define-fun .def_115 () Int (+ .def_12 .def_114))
(define-fun .def_116 () Int (+ .def_10 .def_115))
(define-fun .def_117 () Bool (= .def_116 0))
(define-fun .def_104 () Bool (<= .def_10 0))
(define-fun .def_109 () Bool (or .def_104 .def_108))
(define-fun .def_105 () Bool (not .def_104))
(define-fun .def_100 () Int (+ .def_16 .def_99))
(define-fun .def_101 () Int (+ .def_12 .def_100))
(define-fun .def_102 () Bool (= .def_101 0))
(define-fun .def_94 () Bool (or .def_33 .def_93))
(define-fun .def_86 () Int (* (- 1) .def_65))
(define-fun .def_87 () Int (* (- 1) .def_60))
(define-fun .def_88 () Int (+ .def_87 .def_86))
(define-fun .def_89 () Int (+ .def_55 .def_88))
(define-fun .def_90 () Bool (= .def_89 0))
(define-fun .def_78 () Int (* (- 1) .def_61))
(define-fun .def_79 () Int (+ .def_20 .def_78))
(define-fun .def_80 () Int (+ .def_12 .def_79))
(define-fun .def_81 () Bool (= .def_80 0))
(define-fun .def_70 () Bool (<= .def_61 0))
(define-fun .def_71 () Bool (not .def_70))
(define-fun .def_72 () Bool (or .def_35 .def_71))
(define-fun .def_67 () (Array Int Int) (store .def_18 .def_66 .def_65))
(define-fun .def_68 () Bool (= .y.22 .def_67))
(define-fun .def_62 () (Array Int Int) (store .def_22 .def_61 .def_60))
(define-fun .def_63 () Bool (= .y.24 .def_62))
(define-fun .def_57 () (Array Int Int) (store .def_14 .def_56 .def_55))
(define-fun .def_58 () Bool (= .y.20 .def_57))
(define-fun .def_51 () Int (* (- 1) .y.19))
(define-fun .def_52 () Int (+ .def_12 .def_51))
(define-fun .def_53 () Bool (= .def_52 (- 1)))
(define-fun .def_37 () Bool (and .def_34 .def_36))
(define-fun .def_38 () Bool (and .def_28 .def_37))
(define-fun .def_39 () Bool (and .loc.27 .def_38))
(define-fun .def_41 () Bool (and .def_39 .def_40))
(define-fun .def_43 () Bool (and .def_41 .def_42))
(define-fun .def_45 () Bool (and .def_43 .def_44))
(define-fun .def_47 () Bool (and .def_45 .def_46))
(define-fun .def_49 () Bool (and .def_47 .def_48))
(define-fun .def_54 () Bool (and .def_49 .def_53))
(define-fun .def_59 () Bool (and .def_54 .def_58))
(define-fun .def_64 () Bool (and .def_59 .def_63))
(define-fun .def_69 () Bool (and .def_64 .def_68))
(define-fun .def_73 () Bool (and .def_69 .def_72))
(define-fun .def_82 () Bool (and .def_73 .def_81))
(define-fun .def_91 () Bool (and .def_82 .def_90))
(define-fun .def_95 () Bool (and .def_91 .def_94))
(define-fun .def_103 () Bool (and .def_95 .def_102))
(define-fun .def_106 () Bool (and .def_103 .def_105))
(define-fun .def_110 () Bool (and .def_106 .def_109))
(define-fun .def_118 () Bool (and .def_110 .def_117))
(define-fun .def_127 () Bool (and .def_118 .def_126))
(define-fun .def_129 () Bool (and .def_127 .def_128))
(define-fun .def_131 () Bool (and .def_129 .def_130))
(define-fun .def_247 () Bool (! (or .def_131 .def_246) :trans true))
(define-fun .def_249 () Bool (and .def_28 .def_30))
(define-fun .def_250 () Bool (! (not .def_249) :invar-property 0))
(assert true)
